\ Model (null)_copy
\ LP format - for model browsing. Use MPS format to capture full model detail.
\ Signature: 0x6c9ffa2c3f7e1119
Minimize
 
Subject To
 outflow_0_0_(C16): flow_0_1_0 + flow_0_2_0 + flow_0_3_0 + flow_0_4_0
   + flow_0_5_0 + flow_0_6_0 + flow_0_7_0 + flow_0_8_0 + flow_0_9_0
   + flow_0_10_0 + flow_0_11_0 + flow_0_12_0 + flow_0_13_0 + flow_0_14_0
   + flow_0_15_0 + flow_0_16_0 + flow_0_17_0 + flow_0_18_0 + flow_0_19_0
   + flow_0_20_0 + flow_0_21_0 + flow_0_22_0 + flow_0_23_0 + flow_0_24_0
   + flow_0_25_0 + flow_0_26_0 + flow_0_27_0 + flow_0_28_0 + flow_0_29_0
   + flow_0_30_0 + flow_0_31_0 = -14
Bounds
End
